32	4
12	18	16	13
0	0	0	0	0	3	2	30	31
10	1	1	1	1	1	3
8	6	1	2	6	1	4
3	5	8	16	1	2	5	29
5	4	7	1	1	1	6
2	1	1	1	1	1	7
5	1	5	1	3	1	8
1	6	6	9	1	2	9	28
2	5	4	7	1	2	10	27
1	1	6	5	1	2	11	26
2	1	1	6	3	1	12
7	6	4	1	1	1	13
2	5	1	4	1	1	14
9	1	1	8	7	1	15
1	8	2	1	1	1	16
9	1	4	7	4	1	17
8	1	10	1	7	1	18
5	1	7	1	3	1	19
10	1	1	1	9	1	20
8	3	11	13	1	1	21
1	6	10	1	1	1	22
9	1	6	1	3	1	23
2	4	4	1	8	1	24
6	1	8	1	2	1	25
6	1	1	7	7	1	32
10	5	10	1	6	1	32
5	5	1	2	8	1	32
6	1	1	4	5	1	32
3	2	4	7	2	1	32
4	1	1	2	2	1	32
2	5	8	7	1	1	32
0	0	0	0	0	0
